p edge 13 30
e 1 6
e 1 7
e 1 8
e 1 9
e 1 10
e 2 3
e 2 4
e 2 5
e 2 6
e 2 11
e 2 12
e 3 4
e 3 5
e 3 6
e 3 12
e 4 5
e 4 6
e 5 6
e 5 11
e 5 12
e 6 7
e 6 8
e 6 9
e 6 10
e 6 11
e 6 12
e 7 8
e 7 9
e 7 10
e 8 9
